
List of user-set options:

                                    Name   Value                used
                           linear_solver = mumps                 yes
                  ma57_automatic_scaling = yes                    no
                                max_iter = 2000                  yes
                             mu_strategy = adaptive              yes
                             output_file = Drone-RacingIPOPTinfo.txt  yes
                             print_level = 5                     yes
                      print_user_options = yes                   yes
                                     tol = 1e-007                yes
This is Ipopt version 3.11.0, running with linear solver mumps.

Number of nonzeros in equality constraint Jacobian...:    18676
Number of nonzeros in inequality constraint Jacobian.:        5
Number of nonzeros in Lagrangian Hessian.............:    10087

Total number of variables............................:     2493
                     variables with only lower bounds:        0
                variables with lower and upper bounds:     2493
                     variables with only upper bounds:        0
Total number of equality constraints.................:     1874
Total number of inequality constraints...............:        3
        inequality constraints with only lower bounds:        0
   inequality constraints with lower and upper bounds:        3
        inequality constraints with only upper bounds:        0

iter    objective    inf_pr   inf_du lg(mu)  ||d||  lg(rg) alpha_du alpha_pr  ls
   0 2.0105552e+000 1.66e+000 4.80e-003   0.0 0.00e+000    -  0.00e+000 0.00e+000   0
   1 2.0130032e+000 1.35e+000 4.89e-001  -4.5 1.50e+000    -  1.20e-001 1.87e-001h  1
   2 2.0212413e+000 5.87e-001 1.04e+000  -4.6 1.06e+000    -  5.02e-002 5.65e-001h  1
   3 2.0279109e+000 3.70e-004 5.20e-001  -4.6 4.10e-001    -  4.67e-001 1.00e+000h  1
   4 2.0275577e+000 7.06e-007 1.12e-001  -4.9 1.08e-002    -  8.09e-001 1.00e+000h  1
   5 2.0259495e+000 1.54e-005 9.40e-002  -5.6 5.14e-002    -  2.25e-001 7.50e-001h  1
   6 2.0251138e+000 9.90e-006 1.49e-002  -5.7 5.97e-002    -  9.11e-001 6.18e-001h  1
   7 2.0238464e+000 1.05e-005 3.35e-002  -6.8 5.53e-001    -  6.36e-001 2.39e-001h  1
   8 2.0241171e+000 9.20e-005 5.37e-002  -3.3 9.51e+000    -  1.00e-001 3.16e-002f  1
   9 2.0287343e+000 2.94e-004 8.18e-002  -1.3 1.08e+003    -  1.66e-003 5.19e-004f  1
iter    objective    inf_pr   inf_du lg(mu)  ||d||  lg(rg) alpha_du alpha_pr  ls
  10 2.0654286e+000 1.16e-002 3.13e-002  -2.0 8.43e+001    -  1.95e-002 2.88e-002f  1
  11 2.2587036e+000 3.20e-001 4.72e-002  -2.0 2.13e+001    -  8.57e-002 1.53e-001f  1
  12 2.5659623e+000 6.22e-001 4.32e-002  -2.0 1.36e+001    -  4.32e-001 3.34e-001f  1
  13 2.9662711e+000 7.83e-001 1.32e-001  -2.0 9.86e+000    -  8.96e-001 9.00e-001h  1
  14 2.9828846e+000 7.83e-002 1.16e-002  -2.0 1.00e+001    -  1.00e+000 1.00e+000h  1
  15 2.6178599e+000 1.15e-001 3.96e-002  -3.1 2.73e+000    -  8.89e-001 1.00e+000h  1
  16 2.5789889e+000 2.90e-002 1.86e-002  -3.1 3.45e-001  -2.0 1.00e+000 7.78e-001h  1
  17 2.4752017e+000 1.77e-002 9.05e-003  -3.1 6.58e-001  -2.5 1.00e+000 1.00e+000h  1
  18 2.4060633e+000 7.97e-003 5.06e-003  -3.1 4.74e-001  -3.0 1.00e+000 1.00e+000h  1
  19 2.3335983e+000 6.12e-003 4.81e-003  -4.6 4.95e-001  -2.5 9.22e-001 9.08e-001h  1
iter    objective    inf_pr   inf_du lg(mu)  ||d||  lg(rg) alpha_du alpha_pr  ls
  20 2.3159216e+000 2.73e-003 8.13e-003  -4.6 2.44e-001  -2.1 1.00e+000 6.48e-001h  1
  21 2.2900633e+000 3.08e-003 9.66e-003  -4.6 4.23e-001  -2.6 1.00e+000 5.54e-001h  1
  22 2.2828591e+000 1.60e-003 6.75e-003  -4.6 1.40e-001  -2.2 1.00e+000 5.60e-001h  1
  23 2.2713415e+000 1.71e-003 9.37e-003  -4.6 3.62e-001  -2.6 1.00e+000 4.01e-001h  1
  24 2.2619595e+000 7.65e-004 1.01e-003  -4.6 1.25e-001  -2.2 1.00e+000 8.85e-001h  1
  25 2.2560695e+000 9.73e-004 9.71e-003  -4.6 4.61e-001  -2.7 1.00e+000 1.87e-001h  1
  26 2.2451182e+000 1.16e-003 7.39e-004  -4.6 1.33e-001  -2.3 1.00e+000 1.00e+000h  1
  27 2.2389921e+000 1.71e-003 7.30e-003  -4.6 5.79e-001  -2.7 6.55e-001 1.67e-001h  1
  28 2.2318362e+000 1.38e-003 1.98e-003  -4.6 1.54e-001  -2.3 1.00e+000 5.86e-001h  1
  29 2.2242774e+000 2.35e-003 4.67e-003  -4.6 7.41e-001  -2.8 7.96e-001 2.08e-001h  1
iter    objective    inf_pr   inf_du lg(mu)  ||d||  lg(rg) alpha_du alpha_pr  ls
  30 2.2172958e+000 1.76e-003 1.82e-003  -4.6 2.07e-001  -2.4 1.00e+000 5.71e-001h  1
  31 2.2110676e+000 2.49e-003 2.68e-003  -4.6 9.01e-001  -2.8 4.91e-001 1.68e-001h  1
  32 2.2021775e+000 2.19e-003 1.76e-003  -4.6 2.57e-001  -2.4 1.00e+000 7.18e-001h  1
  33 2.1950184e+000 3.58e-003 2.32e-003  -4.6 1.04e+000  -2.9 3.93e-001 2.06e-001h  1
  34 2.1858395e+000 2.82e-003 2.23e-003  -4.6 3.52e-001  -2.5 1.00e+000 8.95e-001h  1
  35 2.1779084e+000 5.10e-003 2.94e-003  -4.6 1.16e+000  -2.9 3.49e-001 2.92e-001h  1
  36 2.1757899e+000 4.10e-003 3.74e-003  -4.6 3.17e-001  -2.5 1.00e+000 2.29e-001h  1
  37 2.1720422e+000 4.03e-003 3.57e-003  -4.6 1.19e+000  -3.0 3.27e-001 1.55e-001h  1
  38 2.1690508e+000 2.83e-003 3.61e-003  -4.6 3.58e-001  -2.6 1.00e+000 3.55e-001h  1
  39 2.1602840e+000 5.71e-003 3.41e-003  -4.6 1.34e+000  -3.0 3.58e-001 3.71e-001h  1
iter    objective    inf_pr   inf_du lg(mu)  ||d||  lg(rg) alpha_du alpha_pr  ls
  40 2.1571065e+000 6.28e-003 4.47e-003  -4.6 7.86e+002  -3.5 3.53e-004 4.63e-004h  1
  41 2.1540662e+000 5.96e-003 4.28e-003  -4.6 1.71e+000  -3.1 3.26e-001 1.12e-001h  1
  42 2.1455066e+000 2.81e-003 3.16e-003  -4.6 4.94e-001  -2.7 1.00e+000 1.00e+000h  1
  43 2.1427076e+000 2.62e-003 2.97e-003  -4.6 1.37e+000  -3.1 3.64e-001 1.19e-001h  1
  44 2.1391424e+000 3.44e-003 4.02e-003  -4.6 1.40e+001  -3.6 3.13e-002 3.04e-002h  1
  45 2.1326629e+000 3.85e-003 3.91e-003  -4.6 1.36e+000  -3.2 6.36e-001 3.81e-001h  1
  46 2.1290487e+000 4.27e-003 4.46e-003  -4.6 6.85e+000  -3.7 7.50e-002 5.78e-002h  1
  47 2.1229895e+000 3.67e-003 4.72e-003  -4.6 1.10e+000  -3.2 1.00e+000 4.17e-001h  1
  48 2.1198003e+000 3.27e-003 2.99e-003  -4.6 2.43e+000  -3.7 5.27e-001 1.12e-001h  1
  49 2.1087795e+000 3.15e-003 6.60e-004  -4.6 9.35e-001  -3.3 1.00e+000 1.00e+000h  1
iter    objective    inf_pr   inf_du lg(mu)  ||d||  lg(rg) alpha_du alpha_pr  ls
  50 2.1023072e+000 3.35e-003 2.49e-003  -4.6 2.13e+000  -3.8 7.15e-001 2.61e-001h  1
  51 2.1011736e+000 3.69e-003 2.23e-003  -4.6 1.11e+002  -4.2 3.49e-003 7.69e-003h  1
  52 2.0900637e+000 2.61e-003 2.56e-003  -4.6 2.19e+000  -3.8 1.00e+000 4.92e-001h  1
  53 2.0786046e+000 2.81e-003 5.68e-003  -4.6 5.01e+000  -4.3 1.00e+000 2.48e-001h  1
  54 2.0590908e+000 8.45e-003 6.29e-003  -4.6 1.11e+001  -4.8 8.70e-001 2.54e-001h  1
  55 2.0430810e+000 1.25e-002 7.53e-003  -4.6 2.59e+001  -5.3 3.77e-001 2.00e-001h  1
  56 2.0384579e+000 9.56e-003 2.37e-003  -4.6 6.76e+000  -4.8 1.00e+000 2.38e-001h  1
  57 2.0313443e+000 6.47e-003 2.84e-003  -4.6 1.08e+001  -5.3 1.00e+000 3.39e-001h  1
  58 2.0257580e+000 4.26e-003 2.35e-003  -4.6 1.34e+001  -5.8 1.00e+000 3.81e-001h  1
  59 2.0242432e+000 3.26e-003 1.42e-003  -4.6 1.58e+001    -  8.28e-001 3.28e-001h  1
iter    objective    inf_pr   inf_du lg(mu)  ||d||  lg(rg) alpha_du alpha_pr  ls
  60 2.0233173e+000 1.43e-003 2.21e-005  -4.6 3.08e+000    -  1.00e+000 1.00e+000h  1
  61 2.0180625e+000 2.89e-003 5.24e-005  -4.9 1.53e+000    -  1.00e+000 9.78e-001h  1
  62 2.0136055e+000 5.68e-003 2.75e-005  -5.3 2.74e+000    -  9.88e-001 1.00e+000h  1
  63 2.0119100e+000 1.70e-003 1.03e-004  -5.6 1.83e+000    -  7.61e-001 9.99e-001h  1
  64 2.0122257e+000 5.46e-003 1.11e-004  -5.5 3.36e+000  -6.3 7.60e-001 1.00e+000h  1
  65 2.0121930e+000 1.31e-002 4.64e-005  -5.5 6.54e+000    -  6.55e-001 5.76e-001h  1
  66 2.0113790e+000 4.73e-004 9.40e-006  -5.8 9.89e-001    -  1.00e+000 1.00e+000h  1
  67 2.0111126e+000 5.54e-004 2.81e-006  -6.0 1.01e+000    -  1.00e+000 9.99e-001h  1
  68 2.0107304e+000 1.43e-003 1.38e-006  -6.6 8.97e-001    -  1.00e+000 1.00e+000h  1
  69 2.0106701e+000 3.33e-003 6.79e-007  -6.8 1.31e+000    -  1.00e+000 1.00e+000h  1
iter    objective    inf_pr   inf_du lg(mu)  ||d||  lg(rg) alpha_du alpha_pr  ls
  70 2.0106261e+000 1.08e-003 4.01e-006  -7.2 1.57e+000    -  9.85e-001 1.00e+000h  1
  71 2.0106083e+000 1.04e-003 1.38e-005  -7.4 1.05e+000    -  9.39e-001 1.00e+000h  1
  72 2.0105962e+000 1.81e-003 1.66e-007  -7.8 1.22e+000    -  1.00e+000 1.00e+000h  1
  73 2.0105930e+000 3.94e-004 5.77e-008  -8.0 7.81e-001    -  1.00e+000 1.00e+000h  1
  74 2.0105880e+000 4.78e-005 1.18e-005  -9.1 1.17e-001  -6.7 8.40e-001 1.00e+000h  1
  75 2.0105883e+000 9.81e-005 2.17e-008  -8.8 1.81e-001  -7.2 1.00e+000 1.00e+000h  1
  76 2.0105882e+000 1.80e-004 1.98e-005  -8.9 4.47e-001  -7.7 1.00e+000 6.57e-001h  1
  77 2.0105881e+000 1.96e-005 8.42e-009  -8.9 1.55e-001  -7.3 1.00e+000 1.00e+000f  1
  78 2.0105886e+000 1.52e-005 3.29e-008  -8.7 6.88e-001  -7.7 1.00e+000 1.00e+000h  1
  79 2.0105883e+000 1.06e-005 1.19e-008  -8.8 2.46e-001  -7.3 1.00e+000 1.00e+000h  1
iter    objective    inf_pr   inf_du lg(mu)  ||d||  lg(rg) alpha_du alpha_pr  ls
  80 2.0105875e+000 1.83e-004 2.89e-006  -9.8 3.91e-001  -7.8 8.04e-001 1.00e+000h  1
  81 2.0105874e+000 2.24e-005 8.13e-009  -9.9 1.90e-001  -7.4 1.00e+000 1.00e+000h  1
  82 2.0105896e+000 2.20e-004 1.35e-007  -8.4 8.90e-001  -7.8 1.00e+000 1.00e+000h  1
  83 2.0105892e+000 9.62e-005 1.94e-006  -8.5 1.28e+000  -8.3 1.00e+000 8.61e-001h  1
  84 2.0105891e+000 2.45e-005 6.25e-009  -8.5 4.93e-001  -7.9 1.00e+000 1.00e+000f  1
  85 2.0105891e+000 1.75e-005 8.67e-010  -8.5 2.05e-001  -8.4 1.00e+000 1.00e+000h  1
  86 2.0105891e+000 2.86e-007 8.40e-010  -8.5 7.45e-002  -7.9 1.00e+000 1.00e+000h  1
  87 2.0105876e+000 3.92e-004 6.10e-006  -9.3 4.60e-001  -8.4 7.34e-001 9.99e-001h  1
  88 2.0105878e+000 7.05e-006 3.72e-009  -9.0 3.71e-001  -8.0 1.00e+000 1.00e+000h  1
  89 2.0105901e+000 2.55e-003 1.43e-005  -8.3 1.46e+000  -8.5 6.57e-001 1.00e+000h  1
iter    objective    inf_pr   inf_du lg(mu)  ||d||  lg(rg) alpha_du alpha_pr  ls
  90 2.0105890e+000 2.26e-005 1.61e-008  -8.5 6.54e-001  -8.1 1.00e+000 1.00e+000h  1
  91 2.0105890e+000 3.91e-004 1.22e-009  -8.5 2.29e-001  -8.5 1.00e+000 1.00e+000h  1
  92 2.0105890e+000 3.83e-006 7.97e-010  -8.5 1.01e-001  -8.1 1.00e+000 1.00e+000h  1
  93 2.0105885e+000 8.20e-005 2.57e-008  -8.7 9.34e-001  -8.6 1.00e+000 1.00e+000h  1
  94 2.0105884e+000 6.93e-005 5.99e-007  -8.8 5.76e+000  -9.1 3.46e-001 1.63e-001h  1
  95 2.0105882e+000 1.97e-005 2.93e-009  -8.8 5.43e-001  -9.5 1.00e+000 1.00e+000f  1
  96 2.0105882e+000 4.37e-006 5.00e-011  -8.8 2.18e-001    -  1.00e+000 1.00e+000h  1
  97 2.0105877e+000 1.80e-004 7.97e-009  -9.2 5.74e-001    -  1.00e+000 1.00e+000h  1
  98 2.0105876e+000 2.81e-004 1.38e-009  -9.3 6.61e-001    -  1.00e+000 1.00e+000h  1
  99 2.0105876e+000 8.87e-007 3.77e-011  -9.3 7.78e-002    -  1.00e+000 1.00e+000h  1
iter    objective    inf_pr   inf_du lg(mu)  ||d||  lg(rg) alpha_du alpha_pr  ls
 100 2.0105873e+000 3.92e-004 1.30e-009  -9.8 8.51e-001    -  1.00e+000 1.00e+000h  1
 101 2.0105873e+000 2.73e-004 3.30e-010 -10.3 6.14e-001    -  1.00e+000 1.00e+000h  1
 102 2.0105873e+000 2.22e-005 3.43e-009 -11.0 4.18e-001    -  9.94e-001 1.00e+000h  1
 103 2.0105873e+000 6.62e-006 7.91e-012 -11.0 5.43e-001    -  1.00e+000 1.00e+000h  1
 104 2.0105873e+000 1.69e-007 1.34e-012 -11.0 9.46e-002    -  1.00e+000 1.00e+000h  1
 105 2.0105873e+000 9.77e-011 9.43e-013 -11.0 2.27e-003    -  1.00e+000 1.00e+000h  1

Number of Iterations....: 105

                                   (scaled)                 (unscaled)
Objective...............:  2.0105872535703386e+000   2.0105872535703386e+000
Dual infeasibility......:  9.4309529213409520e-013   9.4309529213409520e-013
Constraint violation....:  9.7727603787234330e-011   9.7727603787234330e-011
Complementarity.........:  1.0000050269100461e-011   1.0000050269100461e-011
Overall NLP error.......:  9.7727603787234330e-011   9.7727603787234330e-011


Number of objective function evaluations             = 106
Number of objective gradient evaluations             = 106
Number of equality constraint evaluations            = 106
Number of inequality constraint evaluations          = 106
Number of equality constraint Jacobian evaluations   = 106
Number of inequality constraint Jacobian evaluations = 106
Number of Lagrangian Hessian evaluations             = 105
Total CPU secs in IPOPT (w/o function evaluations)   =      1.895
Total CPU secs in NLP function evaluations           =      7.379

EXIT: Optimal Solution Found.
